
;this file is automatically generated: Sun Oct 25 10:43:48 CST 2020

;declarations generated

(declare-fun oclExcludes ( Int Int) Bool)
(declare-fun Cardinality ( Int) Int)
(declare-fun oclSelect ( Int Bool) Int)
(declare-fun obj_50b4933f_ba46_471e_b914_713a6cb03ec2 ( Int) Int)
(declare-fun Enum0 ( Int) Int)
(declare-fun Enum1 ( Int) Int)
(declare-fun container_ ( Int) Int)
(declare-fun oclIncludes ( Int Int) Bool)
(declare-fun type_d35b595b_4a37_454d_8947_c8de2b80252f_Class22 ( Int) Bool)
(declare-fun ObjAt ( Int Int) Int)

;formula(s) generated
(assert (forall ((p Int)) (=> ( type_d35b595b_4a37_454d_8947_c8de2b80252f_Class22 p )  (and (>= ( Enum0 ( obj_50b4933f_ba46_471e_b914_713a6cb03ec2 p )  )  0) (<= ( Enum0 ( obj_50b4933f_ba46_471e_b914_713a6cb03ec2 p )  )  3)))))
(assert (! (forall ((c1 Int)) (=> ( type_d35b595b_4a37_454d_8947_c8de2b80252f_Class22 c1 )  (not (= ( Enum0 ( obj_50b4933f_ba46_471e_b914_713a6cb03ec2 c1 )  )  1) ))):named l0))
(assert (exists ((o Int)) ( type_d35b595b_4a37_454d_8947_c8de2b80252f_Class22 ( obj_50b4933f_ba46_471e_b914_713a6cb03ec2 o )  ) ))

 ;end of formula 